c 45_3_checker.cnf
c
c field = 45
c formula set type = 3_checker
c
p cnf 4 14
82 
84 
86 
-80 
83 
85 
87 
-81 
28 
58 
118 
-148 
29 
59 
119 
-149 
58 
118 
148 
-28 
59 
119 
149 
-29 
58 
118 
148 
-178 
59 
119 
149 
-179 
118 
148 
178 
-58 
119 
149 
179 
-59 
118 
148 
178 
-208 
119 
149 
179 
-209 
116 
144 
172 
-200 
117 
145 
173 
-201 
